% Auto-generated by scripts/generate_dzn.py
% problem_type   = regex
% instance       = regex_39
% source_json    = instances_json/1_medium_blowup/regex_39.json
% blowup         = 8.952380952380953
% representation = NFA

mode = 1;

var_count = 22;
n_constraints = 2;
Q = 12;
S = 2;
q0 = [1, 1];
F = [{12}, {9}];
weights = [7, 4, 10, 7, 3, 5, 7, 9, 8, 4, 4, 10, 8, 8, 10, 9, 8, 5, 4, 2, 10, 3];
d_dfa = array3d(1..2, 1..12, 1..2, [
  % k = 1
    0, 0,
    0, 0,
    0, 0,
    0, 0,
    0, 0,
    0, 0,
    0, 0,
    0, 0,
    0, 0,
    0, 0,
    0, 0,
    0, 0,

  % k = 2
    0, 0,
    0, 0,
    0, 0,
    0, 0,
    0, 0,
    0, 0,
    0, 0,
    0, 0,
    0, 0,
    0, 0,
    0, 0,
    0, 0
]);
d_nfa = array3d(1..2, 1..12, 1..2, [
  % k = 1
    {1}, {1, 2},
    {3}, {},
    {}, {4},
    {5}, {5},
    {6}, {6},
    {7}, {7},
    {8}, {8},
    {9}, {9},
    {10}, {10},
    {11}, {11},
    {12}, {12},
    {}, {},

  % k = 2
    {1}, {2},
    {2}, {3},
    {3}, {4},
    {4}, {5},
    {5}, {6},
    {6}, {7},
    {7}, {8},
    {8}, {9},
    {9}, {},
    {}, {},
    {}, {},
    {}, {}
]);
